(declare-const a Real)
(declare-const b Real)
(declare-const c Real)
(assert (= (* a b c) 1))
(assert (> a 0))
(assert (> b 0))
(assert (> c 0))
(assert (not (<= (+ (* -901016 (pow b 4)) (* -695192 (pow a 4)) (* (pow (+ 17343 (* 17343 (pow b 4)) (* 104058 (pow b 2))) -1) (pow (+ (* 17343 (pow a 2)) (* 17343 (pow b 4)) (* 104058 a (pow b 2))) 2)) (* -1769472 (pow a (pow 3 -1)) (pow b (/ 11 3))) (* -884736 (pow a (/ 10 3)) (pow b (/ 2 3))) (* 965276 b (pow a 3)) (* 3146396 a (pow b 3))) 0)))
(check-sat)
(get-model)
(exit)